10479 10521 946
8911 12089 1010
9357 10643 1044
8659 11341 1037
7978 13022 851
8628 12372 976
8164 12836 909
9750 11250 1038
7957 13043 831
8295 12705 929
6931 13069 826
9975 11025 1034
9927 12073 940
10244 11756 1018
